HEIGHT = 13;
WIDTH = 27;
AGENTS = 8;
TUNNEL_4 = true;
TUNNEL_6 = true;

path = array2d(1..AGENTS, Marker,
  [|(y:  3, x: 1, d: ">"), (y: 11, x: 27, d: ">")
   |(y:  4, x: 1, d: ">"), (y:  9, x: 27, d: ">")
   |(y:  5, x: 1, d: ">"), (y:  8, x: 27, d: ">")
   |(y:  6, x: 1, d: ">"), (y: 10, x: 27, d: ">")
   |(y:  8, x: 1, d: ">"), (y:  5, x: 27, d: ">")
   |(y:  9, x: 1, d: ">"), (y:  4, x: 27, d: ">")
   |(y: 10, x: 1, d: ">"), (y:  6, x: 27, d: ">")
   |(y: 11, x: 1, d: ">"), (y:  3, x: 27, d: ">")|]);

walls =
  [|0,0,0,0,0,0,0,1,1,1,1,1,1,1,1,1,1,1,1,0,0,0,0,0,0,0,0
   |0,0,0,0,0,0,0,1,1,1,1,1,1,1,1,1,1,1,1,0,0,0,0,0,0,0,0
   |0,0,0,0,0,0,0,1,1,1,1,1,1,1,1,1,1,1,1,0,0,0,0,0,0,0,0
   |0,0,0,0,0,0,0,0,0,0,0,0,0,0,0,0,0,0,0,0,0,0,0,0,0,0,0
   |0,0,0,0,0,0,0,0,0,0,0,0,0,0,0,0,0,0,0,0,0,0,0,0,0,0,0
   |0,0,0,0,0,0,0,1,1,1,1,1,1,1,1,1,1,1,1,0,0,0,0,0,0,0,0
   |0,0,0,0,0,0,0,1,1,1,1,1,1,1,1,1,1,1,1,0,0,0,0,0,0,0,0
   |0,0,0,0,0,0,0,1,1,1,1,1,1,1,1,1,1,1,1,0,0,0,0,0,0,0,0
   |0,0,0,0,0,0,0,0,0,0,0,0,0,0,0,0,0,0,0,0,0,0,0,0,0,0,0
   |0,0,0,0,0,0,0,0,0,0,0,0,0,0,0,0,0,0,0,0,0,0,0,0,0,0,0
   |0,0,0,0,0,0,0,1,1,1,1,1,1,1,1,1,1,1,1,0,0,0,0,0,0,0,0
   |0,0,0,0,0,0,0,1,1,1,1,1,1,1,1,1,1,1,1,0,0,0,0,0,0,0,0
   |0,0,0,0,0,0,0,1,1,1,1,1,1,1,1,1,1,1,1,0,0,0,0,0,0,0,0|];
